N = 126;
M = 280;
Edge_Start = [1, 1, 3, 3, 4, 5, 5, 6, 7, 7, 8, 9, 10, 11, 11, 12, 13, 14, 15, 16, 17, 18, 19, 20, 21, 22, 23, 23, 24, 25, 25, 27, 27, 28, 29, 30, 32, 32, 33, 34, 34, 35, 36, 37, 38, 39, 40, 40, 42, 44, 44, 45, 46, 46, 48, 49, 49, 50, 51, 52, 53, 53, 54, 55, 56, 57, 57, 58, 59, 60, 61, 61, 63, 64, 64, 65, 66, 66, 67, 68, 68, 69, 70, 72, 73, 74, 74, 75, 76, 77, 78, 80, 81, 81, 82, 83, 83, 85, 86, 87, 87, 89, 89, 90, 91, 91, 93, 93, 94, 95, 96, 97, 98, 98, 99, 101, 102, 103, 104, 104, 105, 106, 106, 108, 109, 110, 110, 112, 113, 114, 115, 116, 117, 118, 119, 120, 122, 123, 124, 125, 2, 16, 4, 18, 5, 6, 20, 7, 8, 22, 9, 10, 11, 12, 26, 13, 14, 15, 30, 17, 33, 19, 35, 21, 22, 23, 24, 39, 25, 26, 41, 28, 43, 29, 30, 31, 33, 48, 34, 35, 50, 36, 37, 38, 54, 40, 41, 56, 43, 45, 60, 46, 47, 62, 49, 50, 65, 51, 67, 53, 54, 69, 55, 71, 57, 58, 73, 59, 60, 61, 62, 77, 79, 65, 80, 66, 67, 82, 68, 69, 84, 70, 71, 73, 74, 75, 90, 76, 92, 78, 79, 81, 82, 97, 83, 84, 99, 101, 87, 88, 103, 90, 105, 91, 92, 107, 94, 109, 95, 111, 97, 98, 99, 114, 100, 102, 103, 104, 105, 120, 106, 107, 122, 124, 110, 111, 126, 113, 114, 115, 116, 117, 118, 119, 120, 121, 123, 124, 125, 126];
Edge_End = [2, 16, 4, 18, 5, 6, 20, 7, 8, 22, 9, 10, 11, 12, 26, 13, 14, 15, 30, 17, 33, 19, 35, 21, 22, 23, 24, 39, 25, 26, 41, 28, 43, 29, 30, 31, 33, 48, 34, 35, 50, 36, 37, 38, 54, 40, 41, 56, 43, 45, 60, 46, 47, 62, 49, 50, 65, 51, 67, 53, 54, 69, 55, 71, 57, 58, 73, 59, 60, 61, 62, 77, 79, 65, 80, 66, 67, 82, 68, 69, 84, 70, 71, 73, 74, 75, 90, 76, 92, 78, 79, 81, 82, 97, 83, 84, 99, 101, 87, 88, 103, 90, 105, 91, 92, 107, 94, 109, 95, 111, 97, 98, 99, 114, 100, 102, 103, 104, 105, 120, 106, 107, 122, 124, 110, 111, 126, 113, 114, 115, 116, 117, 118, 119, 120, 121, 123, 124, 125, 126, 1, 1, 3, 3, 4, 5, 5, 6, 7, 7, 8, 9, 10, 11, 11, 12, 13, 14, 15, 16, 17, 18, 19, 20, 21, 22, 23, 23, 24, 25, 25, 27, 27, 28, 29, 30, 32, 32, 33, 34, 34, 35, 36, 37, 38, 39, 40, 40, 42, 44, 44, 45, 46, 46, 48, 49, 49, 50, 51, 52, 53, 53, 54, 55, 56, 57, 57, 58, 59, 60, 61, 61, 63, 64, 64, 65, 66, 66, 67, 68, 68, 69, 70, 72, 73, 74, 74, 75, 76, 77, 78, 80, 81, 81, 82, 83, 83, 85, 86, 87, 87, 89, 89, 90, 91, 91, 93, 93, 94, 95, 96, 97, 98, 98, 99, 101, 102, 103, 104, 104, 105, 106, 106, 108, 109, 110, 110, 112, 113, 114, 115, 116, 117, 118, 119, 120, 122, 123, 124, 125];
L = [1, 1, 1, 1, 1, 1, 1, 1, 1, 1, 1, 1, 1, 1, 1, 1, 1, 1, 1, 1, 1, 1, 1, 1, 1, 1, 1, 1, 1, 1, 1, 1, 1, 1, 1, 1, 1, 1, 1, 1, 1, 1, 1, 1, 1, 1, 1, 1, 1, 1, 1, 1, 1, 1, 1, 1, 1, 1, 1, 1, 1, 1, 1, 1, 1, 1, 1, 1, 1, 1, 1, 1, 1, 1, 1, 1, 1, 1, 1, 1, 1, 1, 1, 1, 1, 1, 1, 1, 1, 1, 1, 1, 1, 1, 1, 1, 1, 1, 1, 1, 1, 1, 1, 1, 1, 1, 1, 1, 1, 1, 1, 1, 1, 1, 1, 1, 1, 1, 1, 1, 1, 1, 1, 1, 1, 1, 1, 1, 1, 1, 1, 1, 1, 1, 1, 1, 1, 1, 1, 1, 1, 1, 1, 1, 1, 1, 1, 1, 1, 1, 1, 1, 1, 1, 1, 1, 1, 1, 1, 1, 1, 1, 1, 1, 1, 1, 1, 1, 1, 1, 1, 1, 1, 1, 1, 1, 1, 1, 1, 1, 1, 1, 1, 1, 1, 1, 1, 1, 1, 1, 1, 1, 1, 1, 1, 1, 1, 1, 1, 1, 1, 1, 1, 1, 1, 1, 1, 1, 1, 1, 1, 1, 1, 1, 1, 1, 1, 1, 1, 1, 1, 1, 1, 1, 1, 1, 1, 1, 1, 1, 1, 1, 1, 1, 1, 1, 1, 1, 1, 1, 1, 1, 1, 1, 1, 1, 1, 1, 1, 1, 1, 1, 1, 1, 1, 1, 1, 1, 1, 1, 1, 1, 1, 1, 1, 1, 1, 1, 1, 1, 1, 1, 1, 1, 1, 1, 1, 1, 1, 1];
T = [1, 1, 1, 1, 1, 1, 1, 1, 1, 1, 1, 1, 1, 1, 1, 1, 1, 1, 1, 1, 1, 1, 1, 1, 1, 1, 1, 1, 1, 1, 1, 1, 1, 1, 1, 1, 1, 1, 1, 1, 1, 1, 1, 1, 1, 1, 1, 1, 1, 1, 1, 1, 1, 1, 1, 1, 1, 1, 1, 1, 1, 1, 1, 1, 1, 1, 1, 1, 1, 1, 1, 1, 1, 1, 1, 1, 1, 1, 1, 1, 1, 1, 1, 1, 1, 1, 1, 1, 1, 1, 1, 1, 1, 1, 1, 1, 1, 1, 1, 1, 1, 1, 1, 1, 1, 1, 1, 1, 1, 1, 1, 1, 1, 1, 1, 1, 1, 1, 1, 1, 1, 1, 1, 1, 1, 1, 1, 1, 1, 1, 1, 1, 1, 1, 1, 1, 1, 1, 1, 1, 1, 1, 1, 1, 1, 1, 1, 1, 1, 1, 1, 1, 1, 1, 1, 1, 1, 1, 1, 1, 1, 1, 1, 1, 1, 1, 1, 1, 1, 1, 1, 1, 1, 1, 1, 1, 1, 1, 1, 1, 1, 1, 1, 1, 1, 1, 1, 1, 1, 1, 1, 1, 1, 1, 1, 1, 1, 1, 1, 1, 1, 1, 1, 1, 1, 1, 1, 1, 1, 1, 1, 1, 1, 1, 1, 1, 1, 1, 1, 1, 1, 1, 1, 1, 1, 1, 1, 1, 1, 1, 1, 1, 1, 1, 1, 1, 1, 1, 1, 1, 1, 1, 1, 1, 1, 1, 1, 1, 1, 1, 1, 1, 1, 1, 1, 1, 1, 1, 1, 1, 1, 1, 1, 1, 1, 1, 1, 1, 1, 1, 1, 1, 1, 1, 1, 1, 1, 1, 1, 1];
Lower_Bound = [0, 1, 8, 9, 10, 11, 12, 13, 14, 15, 16, 17, 18, 19, 20, 1, 2, 7, 6, 11, 12, 13, 14, 15, 16, 17, 24, 23, 22, 21, 22, 4, 3, 4, 5, 6, 7, 8, 15, 16, 17, 26, 25, 22, 23, 24, 25, 5, 6, 5, 6, 11, 10, 9, 10, 17, 18, 19, 20, 21, 22, 23, 26, 8, 7, 8, 7, 8, 9, 10, 11, 20, 19, 20, 21, 22, 23, 24, 25, 9, 10, 9, 10, 9, 24, 23, 22, 23, 22, 21, 22, 23, 30, 31, 30, 12, 11, 12, 11, 12, 23, 22, 21, 20, 21, 22, 23, 26, 29, 28, 29, 15, 14, 13, 14, 15, 16, 17, 18, 19, 20, 23, 24, 25, 26, 27];
Upper_Bound = [0, 1, 8, 9, 10, 11, 12, 13, 14, 15, 16, 17, 18, 19, 20, 1, 2, 7, 6, 11, 12, 13, 14, 15, 16, 17, 24, 23, 22, 21, 22, 4, 3, 4, 5, 6, 7, 8, 15, 16, 17, 26, 25, 22, 23, 24, 25, 5, 6, 5, 6, 11, 10, 9, 10, 17, 18, 19, 20, 21, 22, 23, 26, 8, 7, 8, 7, 8, 9, 10, 11, 20, 19, 20, 21, 22, 23, 24, 25, 9, 10, 9, 10, 9, 24, 23, 22, 23, 22, 21, 22, 23, 30, 31, 30, 12, 11, 12, 11, 12, 23, 22, 21, 20, 21, 22, 23, 26, 29, 28, 29, 15, 14, 13, 14, 15, 16, 17, 18, 19, 20, 23, 24, 25, 26, 27];
Start = 1;
End = 126;
Time = 27;
